files/upTests/__reps/RelationIntMatrix2/first/0001.eprime
language ESSENCE' 1.0

find r_RelationIntMatrix2: matrix indexed by [int(0..3), int(0..4)] of bool
such that
    (sum v__0 : int(0..3) . r_RelationIntMatrix2[v__0, 3] * 1) = 2,
    (sum v__0 : int(0..4) . r_RelationIntMatrix2[2, v__0] * 1) = 3,
    r_RelationIntMatrix2[1, 2]
