files/upTests/__reps/RelationIntMatrix2/first/0001.eprime.solution
language ESSENCE' 1.0
$ minion Nodes: 16
$ minion TotalTime: 0.000726
$ Savile Row TotalTime: 0.336
letting r_RelationIntMatrix2 be [[false, false, false, false, false;int(0..4)], 
[false, false, true, false, false;int(0..4)], 
[false, false, true, true, true;int(0..4)], 
[false, false, false, true, false;int(0..4)];int(0..3)]
